c "631347.clq"
p edge 142 552
e 1 5
e 1 6
e 1 12
e 1 13
e 1 20
e 1 24
e 1 25
e 1 34
e 1 37
e 1 43
e 1 50
e 1 63
e 1 69
e 1 74
e 1 95
e 1 96
e 2 5
e 2 6
e 2 7
e 2 10
e 2 19
e 2 21
e 2 25
e 2 29
e 2 31
e 2 45
e 2 63
e 2 78
e 2 97
e 2 128
e 2 129
e 2 134
e 3 5
e 3 13
e 3 62
e 3 87
e 4 5
e 4 6
e 4 7
e 4 8
e 4 12
e 4 13
e 4 18
e 4 20
e 4 41
e 4 46
e 4 52
e 4 62
e 4 91
e 4 112
e 4 114
e 4 128
e 5 6
e 5 7
e 5 8
e 5 9
e 5 14
e 5 15
e 5 16
e 5 17
e 5 21
e 5 22
e 5 23
e 5 26
e 5 27
e 5 28
e 5 30
e 5 33
e 5 39
e 5 40
e 5 44
e 5 45
e 5 49
e 5 58
e 5 68
e 5 75
e 5 76
e 5 79
e 5 84
e 5 90
e 5 97
e 5 101
e 5 102
e 5 108
e 5 121
e 5 122
e 5 132
e 6 7
e 6 8
e 6 9
e 6 10
e 6 11
e 6 22
e 6 23
e 6 25
e 6 30
e 6 33
e 6 36
e 6 37
e 6 46
e 6 63
e 6 71
e 6 82
e 6 88
e 6 89
e 6 107
e 6 122
e 6 126
e 6 135
e 6 140
e 7 8
e 7 9
e 7 10
e 7 11
e 7 12
e 7 17
e 7 26
e 7 32
e 7 35
e 7 40
e 7 51
e 7 60
e 7 101
e 7 103
e 7 110
e 7 122
e 8 9
e 8 10
e 8 15
e 8 16
e 8 19
e 8 21
e 8 27
e 8 33
e 8 34
e 8 38
e 8 39
e 8 44
e 8 51
e 8 53
e 8 65
e 8 71
e 8 107
e 8 112
e 8 118
e 8 119
e 8 131
e 9 11
e 9 12
e 9 13
e 9 14
e 9 15
e 9 18
e 9 20
e 9 27
e 9 29
e 9 35
e 9 40
e 9 44
e 9 48
e 9 55
e 9 73
e 9 87
e 9 91
e 9 93
e 9 94
e 9 127
e 9 139
e 9 141
e 10 11
e 10 14
e 10 17
e 10 23
e 10 33
e 10 50
e 10 54
e 10 56
e 10 60
e 10 61
e 10 69
e 10 77
e 10 83
e 10 86
e 10 99
e 10 112
e 10 114
e 10 115
e 10 117
e 11 38
e 11 39
e 11 54
e 11 62
e 11 76
e 11 98
e 11 104
e 11 113
e 11 128
e 11 133
e 12 14
e 12 15
e 12 16
e 12 18
e 12 20
e 12 30
e 12 42
e 12 62
e 12 64
e 12 85
e 12 92
e 12 139
e 13 16
e 13 18
e 13 25
e 13 26
e 13 27
e 13 31
e 13 58
e 13 59
e 13 60
e 13 67
e 13 68
e 13 70
e 13 74
e 13 108
e 13 111
e 13 115
e 13 130
e 13 135
e 13 137
e 14 17
e 14 21
e 14 22
e 14 29
e 14 35
e 14 38
e 14 46
e 14 48
e 14 54
e 14 57
e 14 70
e 14 82
e 14 89
e 14 101
e 14 106
e 14 121
e 14 138
e 15 24
e 15 32
e 15 64
e 15 75
e 16 24
e 16 43
e 16 44
e 16 47
e 16 67
e 16 93
e 16 113
e 16 129
e 17 19
e 17 22
e 17 26
e 17 28
e 17 46
e 17 56
e 17 57
e 17 67
e 17 77
e 17 87
e 17 88
e 17 95
e 17 100
e 17 114
e 17 117
e 17 119
e 17 120
e 18 19
e 18 23
e 18 28
e 18 32
e 18 71
e 18 74
e 18 79
e 19 41
e 19 50
e 19 55
e 19 111
e 19 135
e 20 36
e 20 47
e 20 51
e 20 79
e 20 80
e 20 97
e 20 100
e 20 124
e 21 39
e 21 65
e 21 81
e 21 102
e 21 105
e 21 142
e 22 29
e 22 35
e 22 37
e 22 41
e 22 45
e 22 52
e 22 53
e 22 80
e 22 123
e 23 24
e 23 34
e 23 86
e 23 109
e 23 122
e 23 130
e 24 38
e 24 69
e 25 28
e 25 31
e 25 40
e 25 45
e 25 47
e 25 49
e 25 55
e 25 61
e 25 65
e 25 66
e 25 117
e 26 42
e 26 99
e 26 120
e 27 31
e 27 34
e 27 48
e 27 64
e 27 101
e 27 119
e 27 120
e 28 32
e 28 41
e 28 42
e 28 47
e 28 72
e 28 73
e 28 74
e 28 88
e 28 94
e 28 111
e 29 30
e 29 36
e 29 37
e 29 48
e 29 52
e 29 83
e 29 84
e 29 87
e 29 89
e 29 93
e 29 104
e 29 105
e 29 131
e 29 137
e 30 42
e 30 43
e 30 58
e 30 75
e 30 89
e 30 102
e 30 104
e 30 125
e 31 50
e 31 55
e 31 91
e 31 93
e 31 96
e 31 115
e 33 36
e 33 127
e 34 60
e 34 66
e 34 70
e 34 80
e 34 141
e 35 84
e 35 88
e 35 99
e 36 58
e 36 61
e 36 66
e 37 66
e 37 69
e 37 72
e 37 86
e 37 97
e 37 98
e 37 103
e 37 107
e 37 134
e 38 119
e 38 120
e 38 137
e 39 109
e 40 43
e 40 49
e 40 53
e 40 59
e 40 64
e 40 76
e 40 80
e 40 91
e 40 95
e 40 96
e 40 106
e 40 134
e 41 51
e 41 103
e 41 108
e 41 124
e 42 49
e 42 59
e 42 81
e 42 98
e 42 117
e 43 57
e 43 73
e 43 92
e 44 53
e 44 59
e 44 77
e 44 90
e 44 92
e 44 136
e 44 138
e 45 54
e 45 129
e 46 57
e 46 68
e 46 77
e 47 52
e 47 85
e 47 116
e 47 139
e 48 92
e 49 61
e 49 132
e 50 71
e 50 94
e 50 123
e 50 125
e 50 130
e 51 56
e 52 56
e 52 78
e 52 82
e 52 105
e 52 124
e 53 79
e 54 65
e 54 103
e 55 76
e 57 126
e 58 72
e 58 83
e 58 94
e 58 95
e 58 113
e 59 63
e 59 72
e 59 78
e 59 81
e 59 84
e 59 105
e 59 109
e 59 128
e 59 139
e 60 67
e 61 70
e 61 73
e 61 75
e 61 99
e 61 142
e 62 85
e 63 109
e 63 125
e 63 127
e 63 136
e 65 68
e 65 83
e 65 108
e 65 114
e 65 121
e 65 140
e 67 104
e 68 90
e 68 100
e 68 130
e 68 131
e 69 118
e 70 78
e 70 121
e 70 137
e 71 124
e 71 138
e 72 96
e 72 116
e 73 113
e 75 81
e 75 85
e 75 106
e 75 133
e 75 140
e 76 110
e 76 134
e 77 112
e 77 142
e 78 100
e 78 132
e 79 82
e 79 136
e 81 86
e 81 102
e 81 107
e 82 90
e 82 98
e 82 106
e 82 127
e 82 131
e 82 140
e 83 135
e 84 110
e 84 141
e 87 115
e 87 116
e 89 129
e 89 138
e 91 123
e 93 132
e 96 110
e 96 126
e 97 118
e 97 133
e 100 133
e 101 125
e 103 123
e 104 116
e 104 118
e 105 126
e 106 111
e 106 141
e 124 142
e 133 136
